
--- Job bchfcnet.gms Start 02/09/22 15:14:03 34.3.0 rac355f3 WEX-WEI x86 64bit/MS Windows
--- Applying:
    C:\GAMS\34\gmsprmNT.txt
--- GAMS Parameters defined
    Input C:\Users\dekhi\Desktop\gamsworld\FCNetLib\test\bchfcnet.gms
    PageSize 0
    ScrDir C:\Users\dekhi\Desktop\gamsworld\FCNetLib\test\225a\
    SysDir C:\GAMS\34\
    LogOption 3
    ErrMsg 1
    ErrorLog 99
    IDE 1
    ResLim 3600
    LstTitleLeftAligned 1
Licensee: Eval License                                   S211214|0002AW-GEN
          Ostfalia Hochschule fuer angewandte Wissenschaften        DCE1645
          C:\Users\dekhi\Documents\GAMS\gamslice.txt
          License Admin: Mohamed Ali Dekhil, dekhil.medali@gmail.com       
          Evaluation license: Not for commercial or production use
GAMS 34.3.0   Copyright (C) 1987-2021 GAMS Development. All rights reserved
--- Starting compilation
--- bchfcnet.gms(34) 2 Mb
--- . decl.gms(15) 2 Mb
--- bchfcnet.gms(38) 2 Mb
--- . sp90x180.inc(414) 3 Mb
--- bchfcnet.gms(67) 3 Mb
--- . equs.gms(20) 3 Mb
--- bchfcnet.gms(97) 3 Mb
--- call rm -f bchout_i.gdx startcut.txt startheur.txt cuthist.gdx agap.txt rgap.txt cntfail.txt
--- bchfcnet.gms(118) 3 Mb
--- Starting execution: elapsed 0:00:00.083
--- bchfcnet.gms(472) 4 Mb
--- GDX File (execute_unload) C:\Users\dekhi\Desktop\gamsworld\FCNetLib\test\net.gdx
--- bchfcnet.gms(563) 4 Mb
--- GDXin=C:\Users\dekhi\Desktop\gamsworld\FCNetLib\test\points\sp90x180.gdx
--- GDX File (execute_load) C:\Users\dekhi\Desktop\gamsworld\FCNetLib\test\points\sp90x180.gdx
--- Generating MIP model master
--- bchfcnet.gms(567) 4 Mb
---   271 rows  361 columns  1,081 non-zeroes
---   180 discrete-columns
--- Executing CPLEX (Solvelink=2): elapsed 0:00:00.100

IBM ILOG CPLEX   34.3.0 rac355f3 Released Feb 25, 2021 WEI x86 64bit/MS Window

--- GAMS/Cplex Link licensed for continuous and discrete problems.

Reading parameter(s) from "C:\Users\dekhi\Desktop\gamsworld\FCNetLib\test\cplex.op2"
>>  mipstart 1
Finished reading from "C:\Users\dekhi\Desktop\gamsworld\FCNetLib\test\cplex.op2"

--- Space for names approximately 0.01 Mb
--- Use option 'names no' to turn use of names off
--- GMO memory 0.57 Mb (peak 0.58 Mb)
--- Dictionary memory 0.00 Mb
--- Cplex 20.1.0.0 link memory 0.01 Mb (peak 0.04 Mb)
--- Starting Cplex

Version identifier: 20.1.0.0 | 2020-11-10 | 9bedb6d68
CPXPARAM_Threads                                 1
CPXPARAM_MIP_Display                             4
CPXPARAM_TimeLimit                               3600
CPXPARAM_MIP_Tolerances_AbsMIPGap                0
CPXPARAM_MIP_Tolerances_MIPGap                   0
Generic callback                                 0x50
Processing 1 MIP starts.
MIP start 'm1' defined solution with objective 68862.0000.
1 of 1 MIP starts provided solutions.
MIP start 'm1' defined initial solution with objective 68862.0000.
Tried aggregator 4 times.
MIP Presolve eliminated 99 rows and 106 columns.
MIP Presolve added 2 rows and 0 columns.
MIP Presolve modified 140 coefficients.
Aggregator did 52 substitutions.
Reduced MIP has 121 rows, 181 columns, and 369 nonzeros.
Reduced MIP has 92 binaries, 0 generals, 0 SOSs, and 0 indicators.
Presolve time = 0.00 sec. (1.25 ticks)
Probing fixed 2 vars, tightened 0 bounds.
Probing time = 0.00 sec. (0.04 ticks)
Tried aggregator 1 time.
Detecting symmetries...
MIP Presolve eliminated 1 rows and 2 columns.
MIP Presolve modified 2 coefficients.
Reduced MIP has 120 rows, 179 columns, and 366 nonzeros.
Reduced MIP has 90 binaries, 0 generals, 0 SOSs, and 0 indicators.
Presolve time = 0.00 sec. (0.30 ticks)
Probing time = 0.00 sec. (0.03 ticks)
Clique table members: 7.
MIP emphasis: balance optimality and feasibility.
MIP search method: dynamic search.
Parallel mode: none, using 1 thread.
Tried aggregator 1 time.
LP Presolve eliminated 86 rows and 130 columns.
Aggregator did 18 substitutions.
Reduced LP has 16 rows, 31 columns, and 64 nonzeros.
Presolve time = 0.00 sec. (0.10 ticks)
Initializing dual steep norms . . .

Iteration log . . .
Iteration:     1   Dual objective     =         44059.194731
Initializing dual steep norms . . .
Root relaxation solution time = 0.00 sec. (0.18 ticks)

        Nodes                                         Cuts/
   Node  Left     Objective  IInf  Best Integer    Best Bound    ItCnt     Gap

*     0+    0                        68862.0000    28760.0000            58.24%
Found incumbent of value 68862.000000 after 0.00 sec. (2.13 ticks)
      0     0    60005.9912    13    68862.0000    60005.9912       10   12.86%
      0     0    67216.6771    10    68862.0000      Cuts: 54       30    2.39%
      0     0    68141.3536     3    68862.0000      Cuts: 32       38    1.05%
      0     0    68246.0756     3    68862.0000      Cuts: 13       42    0.89%
      0     0    68279.5410     4    68862.0000      Cuts: 12       44    0.85%
      0     0    68309.4150     7    68862.0000      Cuts: 13       52    0.80%
Detecting symmetries...
Detecting symmetries...
      0     2    68309.4150     7    68862.0000    68309.5569       52    0.80%
Elapsed time = 0.03 sec. (17.76 ticks, tree = 0.01 MB, solutions = 1)
*    23     5      integral     0    68861.9994    68498.5609      122    0.53%
                                                  Impl Bds: 3                  
Found incumbent of value 68861.999407 after 0.05 sec. (20.36 ticks)

Cover cuts applied:  11
Implied bound cuts applied:  9
Flow cuts applied:  4
Mixed integer rounding cuts applied:  10
Flow path cuts applied:  1
Zero-half cuts applied:  1
Multi commodity flow cuts applied:  5
Gomory fractional cuts applied:  14

Root node processing (before b&c):
  Real time             =    0.03 sec. (17.77 ticks)
Sequential b&c:
  Real time             =    0.02 sec. (7.80 ticks)
                          ------------
Total (root+branch&cut) =    0.05 sec. (25.56 ticks)

--- MIP status (101): integer optimal solution.
--- Cplex Time: 0.05sec (det. 25.56 ticks)

--- Fixing integer variables and solving final LP...

Version identifier: 20.1.0.0 | 2020-11-10 | 9bedb6d68
CPXPARAM_Advance                                 2
CPXPARAM_Threads                                 1
CPXPARAM_MIP_Display                             4
CPXPARAM_TimeLimit                               3600
CPXPARAM_MIP_Tolerances_AbsMIPGap                0
CPXPARAM_MIP_Tolerances_MIPGap                   0
Tried aggregator 1 time.
LP Presolve eliminated 270 rows and 361 columns.
All rows and columns eliminated.
Presolve time = 0.00 sec. (0.14 ticks)

--- Fixed MIP status (1): optimal.
--- Cplex Time: 0.00sec (det. 0.24 ticks)


Proven optimal solution
MIP Solution:        68861.999407    (270 iterations, 82 nodes)
Final Solve:         68861.999407    (0 iterations)

Best possible:       68861.999407
Absolute gap:            0.000000
Relative gap:            0.000000

--- Reading solution for model master
*** Status: Normal completion
--- Job bchfcnet.gms Stop 02/09/22 15:14:03 elapsed 0:00:00.199
